\ENCODING=ISO-8859-1
\Problem name: IloCplex

Minimize
 obj: x1 + x2 + x3 + x4 + x5 + x6 + x7 + x8 + x9 + x10 + x11 + x12 + x13 + x14
      + x15 + x16 + x17 + x18 + x19 + x20 + x21 + x22 + x23 + x24 + x25 + x26
      + x27 + x28 + x29 + x30 + x31 + x32 + x33 + x34 + x35 + x36 + x37 + x38
      + x39 + x40 + x41 + x42 + x43 + x44 + x45 + x46 + x47 + x48 + x49 + x50
      + x51 + x52 + x53 + x54 + x55 + x56 + x57 + x58 + x59 + x60 + x61 + x62
      + x63 + x64 + x65 + x66 + x67 + x68 + x69 + x70 + x71 + x72 + x73 + x74
      + x75 + x76 + x77 + x78 + x79 + x80 + x81 + x82 + x83 + x84 + x85 + x86
      + x87 + x88 + x89 + x90 + x91 + x92 + x93 + x94 + x95 + x96 + x97 + x98
      + x99 + x100 + x101 + x102 + x103 + x104 + x105 + x106 + x107 + x108
      + x109 + x110 + x111 + x112 + x113 + x114 + x115 + x116 + x117 + x118
      + x119 + x120 + x121 + x122 + x123 + x124 + x125 + x126 + x127 + x128
      + x129 + x130 + x131 + x132 + x133 + x134 + x135 + x136 + x137 + x138
      + x139 + x140 + x141 + x142 + x143 + x144 + x145 + x146 + x147 + x148
      + x149 + x150 + x151 + x152 + x153 + x154 + x155 + x156 + x157 + x158
      + x159 + x160 + x161 + x162 + x163 + x164 + x165 + x166 + x167 + x168
      + x169 + x170 + x171 + x172 + x173 + x174 + x175 + x176 + x177 + x178
      + x179 + x180 + x181 + x182 + x183 + x184 + x185 + x186 + x187 + x188
      + x189 + x190 + x191 + x192 + x193 + x194 + x195 + x196 + x197 + x198
      + x199 + x200 + x201 + x202 + x203 + x204 + x205 + x206 + x207 + x208
      + x209 + x210 + x211 + x212 + x213 + x214 + x215 + x216 + x217 + x218
      + x219 + x220 + x221 + x222 + x223 + x224 + x225 + x226 + x227 + x228
      + x229 + x230 + x231 + x232 + x233 + x234 + x235 + x236 + x237 + x238
      + x239 + x240 + x241 + x242 + x243 + x244 + x245 + x246 + x247 + x248
      + x249 + x250 + x251 + x252 + x253 + x254 + x255 + x256 + x257 + x258
      + x259 + x260 + x261 + x262 + x263 + x264 + x265 + x266 + x267 + x268
      + x269 + x270 + x271 + x272 + x273 + x274 + x275 + x276 + x277 + x278
      + x279 + x280 + x281 + x282 + x283 + x284 + x285 + x286 + x287 + x288
      + x289 + x290 + x291 + x292 + x293 + x294 + x295 + x296 + x297 + x298
      + x299 + x300 + x301 + x302 + x303 + x304 + x305 + x306 + x307 + x308
      + x309 + x310 + x311 + x312 + x313 + x314 + x315 + x316 + x317 + x318
      + x319 + x320 + x321 + x322 + x323 + x324 + x325 + x326 + x327 + x328
      + x329 + x330 + x331 + x332 + x333 + x334 + x335 + x336 + x337 + x338
      + x339 + x340 + x341 + x342 + x343 + x344 + x345 + x346 + x347 + x348
      + x349 + x350 + x351 + x352 + x353 + x354 + x355 + x356 + x357 + x358
      + x359 + x360 + x361 + x362 + x363 + x364 + x365 + x366 + x367 + x368
      + x369 + x370 + x371 + x372 + x373 + x374 + x375 + x376 + x377 + x378
      + x379 + x380 + x381 + x382 + x383 + x384 + x385 + x386 + x387 + x388
      + x389 + x390 + x391 + x392 + x393 + x394 + x395 + x396 + x397 + x398
      + x399 + x400 + x401 + x402 + x403 + x404 + x405 + x406 + x407 + x408
      + x409 + x410 + x411 + x412 + x413 + x414 + x415 + x416 + x417 + x418
      + x419 + x420 + x421 + x422 + x423 + x424 + x425 + x426 + x427 + x428
      + x429 + x430 + x431 + x432 + x433 + x434 + x435 + x436 + x437 + x438
      + x439 + x440 + x441 + x442 + x443 + x444 + x445 + x446 + x447 + x448
      + x449 + x450 + x451 + x452 + x453 + x454 + x455 + x456 + x457 + x458
      + x459 + x460 + x461 + x462 + x463 + x464 + x465 + x466 + x467 + x468
      + x469 + x470 + x471 + x472 + x473 + x474 + x475 + x476 + x477 + x478
      + x479 + x480 + x481 + x482 + x483 + x484 + x485 + x486 + x487 + x488
      + x489 + x490 + x491 + x492 + x493 + x494 + x495 + x496 + x497 + x498
      + x499 + x500 + x501 + x502 + x503 + x504 + x505 + x506 + x507 + x508
      + x509 + x510 + x511 + x512 + x513 + x514 + x515 + x516 + x517 + x518
      + x519 + x520 + x521 + x522 + x523 + x524 + x525 + x526 + x527 + x528
      + x529 + x530 + x531 + x532 + x533 + x534 + x535 + x536 + x537 + x538
      + x539 + x540 + x541 + x542 + x543 + x544 + x545 + x546 + x547 + x548
      + x549 + x550
Subject To
 c1:   x1 + x439 + x443 + x472 + x525  = 1
 c2:   x2 + x426 + x440 + x464 + x477 + x485 + x489 + x497  = 1
 c3:   x3 + x431 + x433 + x436 + x457 + x470 + x521 + x537  = 1
 c4:   x4 + x423 + x429 + x437 + x451 + x503  = 1
 c5:   x5 + x419 + x427  = 1
 c6:   x6 + x420 + x421 + x442 + x460 + x492 + x493 + x512  = 1
 c7:   x7 + x416 + x418 + x484 + x519 + x529  = 1
 c8:   x8 + x410 + x411 + x415 + x425 + x481 + x494 + x548  = 1
 c9:   x9 + x405 + x408 + x466 + x507  = 1
 c10:  x10 + x399 + x403 + x412 + x435  = 1
 c11:  x11 + x396 + x397 + x398 + x422 + x454 + x546  = 1
 c12:  x12 + x367 + x382 + x448 + x463 + x506 + x510 + x544 + x547 + x550  = 1
 c13:  x13 + x385 + x389 + x438 + x449 + x495  = 1
 c14:  x14 - 8.18554946047101e-12 x377 + x381 + x383 + x393 + x402 + x458
       + x491 + x531 + x536  = 1
 c15:  x15 + 1.00000000000819 x377 + x378 + x391 + x395 + x452 + x476  = 1
 c16:  x16 + x373 + x375 + x376 + x513  = 1
 c17:  x17 + x365 + x366 + x369 + x372 + x387 + x406 + x409 + x428 + x508
       + x534  = 1
 c18:  x18 + x361 + x362 + x364 + x480 + 2.47440027124288e-11 x520 + x539  = 1
 c19:  x19 + x356 + x357 + x358 + x465 + x498  = 1
 c20:  x20 + x344 + x353 + x355 + x363  = 1
 c21:  x21 + x340 + x352 + x368 + x371 + x380 + x446 + x453 + x462 + x467
       + x474 + x516 + x533  = 1
 c22:  x22 + x341 + x345 + x351 + x394 + x441 + x455  = 1
 c23:  x23 + x333 + x338 + x354 + x374  = 1
 c24:  x24 + x330 + x332 + x400 + x424 + x511 + x528 + x530 + x542  = 1
 c25:  x25 + x327 + x329 + x360 + x384 + x392 + x445 + x459
       + 3.33066907387547e-16 x529  = 1
 c26:  x26 + x299 + x307 + x348 + x386 + x417 + x499 + x538  = 1
 c27:  x27 + x318 + x319 + x322 + x347 + x370 + x390 + x432 + x486 + x501  = 1
 c28:  x28 + x306 + x309 + x312 + x314 + x337 + x350 + x407 + x413 + x414
       + x450 + x461  = 1
 c29:  x29 + x298 + x300 + x301 + x313 + x334 + x336 + x404 + x468  = 1
 c30:  x30 + x302 + x303 + x328 + x346 + x349 + x469 + x490 + x532  = 1
 c31:  x31 + x295 + x297 + x524 + x527 + x549  = 1
 c32:  x32 + x288 + x294 + x297 + x522 + x541 + x543  = 1
 c33:  x33 + x288 + x295 + x505 - 3.29397065179649e-11 x520 + x522 + x532  = 1
 c34:  x34 + x283 + x293 + x296 + x388 + x447 + x468  = 1
 c35:  x35 + x281 + x282 + x283 + x294 + x496 + x524  = 1
 c36:  x36 + x272 + x278 + x282 + x296 + x424 + x527 + x540  = 1
 c37:  x37 + x272 + x278 + x281 + x293 + x430 + x441  = 1
 c38:  x38 + x253 + x268 + x287 + x291 + x343 + x363 + x509  = 1
 c39:  x39 + x267 + x268 + x271 + x329 + x358 + x490  = 1
 c40:  x40 + x253 + 8.32667268468867e-17 x255 + x267 + x286 + x304 + x331
       + x353 + x374 + x469 + x509 + 3.33066907387547e-16 x529  = 1
 c41:  x41 + x252 + x264 + x266 + x309 + x417 + x444 + x549  = 1
 c42:  x42 + x246 + x249 + x252 + x260 + x270 + x280 + x348 + x364 + x483
       + x502 + x504 + x513  = 1
 c43:  x43 + x246 + x249 + x251 + x255 + x263 + x270 + x287 + x325
       + 1.30288002608836e-11 x377 + x382 + x434 + x471 + x478 + x514 + x545
        = 1
 c44:  x44 + x243 + x244 + x291 + x321 + x355 - 6.84582945886802e-12 x373
       + x375 + 1.30288002608836e-11 x377 + x454 + x542  = 1
 c45:  x45 + x234 + x236 + x244 + x263 + x332 + x335 + x376 + x438 + x471
       + x473 + x500 + x515 + x516 + x523 + x530  = 1
 c46:  x46 + x234 + x236 + x243 + x256 + x265 + x279 + x290 + x292 + x302
       + x323 + x340 + x367 + x405 + x434 + x538  = 1
 c47:  x47 + x230 + x233 + x235 + x320 + x379 + x435 + x475 + x487 + x495
       + x514 + x526  = 1
 c48:  x48 + x226 + x230 + x241 + x260 + x289 + x308 + x311 + x339 + x406
       + x427 + x492  = 1
 c49:  x49 + x222 + x226 + x239 + x240 + x242 + x275 + x326 + x365 + x384
       + x401 + x408 + x460  = 1
 c50:  x50 + x220 + x221 + x222 + x223 + x240 + x241 + x286 + x292 + x316
       + x346 + x359 + x409 + x458 + x529  = 1
 c51:  x51 + x217 + x220 + x221 + x250 + x256 + x264 + x349 + x416 + x518
       + x537  = 1
 c52:  x52 + x216 + x217 + x223 + x254 + x257 + x259 + x269 + x306 + x310
       + x324 + x330 + x393 + x418 + x456 + x463 + x475 + x483 + x494 + x498
       + x499 + x515 + x517 + x526  = 1
 c53:  x53 + x213 + x216 + x225 + x233 + x368 + x388 + x389 + x442 + x482
       + x506 + x507 + x512  = 1
 c54:  x54 + x213 + x214 + x235 + x315 + x316 + x398 + x401 + x420 + x472  = 1
 c55:  x55 + x210 + x211 + x213 + x305 + x311 + x342 + x343 + x352 + x385
       + x440 + x486 + x493 + x496 - 3.19449034080202e-13 x525 + x535 + x544
       + x545  = 1
 c56:  x56 + x210 + x211 + x212 + x214 + x215 + x299 + x397 + x449 + x489
       + x533  = 1
 c57:  x57 + x196 + x198 + x210 + x214 + x237 + x248 + x258 + x303 + x317
       + x325 + x337 + x390 + x419 + x439 + x477  = 1
 c58:  x58 + x196 + x198 + x209 + x211 + x219 + x225 + x254 + x271 + x277
       + x315 + x324 + x326 + x361 + x372 - 1.29600552510484e-11 x377 + x383
       + x399 + x488 + x502 + x504 + x517 + x535 + x540  = 1
 c59:  x59 + x186 + x187 + x195 + x196 + x209 + x212 + x229 + x242 + x245
       + x247 + x250 + x259 + x261 + x284 + x290 + x304 + x317 + x323 + x335
       + x339 + x359 + x412 + x413 + x426 + x444 + x452 + x474 + x485 + x519
       + x548  = 1
 c60:  x60 + x186 + x187 + x194 + x195 + x198 + x206 + x207 + x215 + x219
       + x258 + x262 + x266 + x301 + x310 + x321 + x326 + x369
       + 2.73726596944356e-11 x373 - 3.10382830548406e-11 x377 + x378 + x400
       + x414 + x429 + x453 + x457 + x491 + x543  = 1
 c61:  x61 + x178 + 0.999999999996823 x181 + x197 + x204 + x218 + x224 + x231
       + x232 + x273 + x284 + x305 + x308 + x320 + x324 + x341 + x359 + x360
       + x386 + x387 + x395 + x465 + x478 + x479 + x482
       + 0.999999999998237 x520 + x526  = 1
 c62:  x62 + x177 + x181 + x184 + x185 + x187 + x188 + x193 + x228 + x238
       + x239 + x245 + x261 + x276 + x280 + x289 + x310 + x336 + x351 + x396
       + x407 + 1.1234399653945e-16 x427 + x428 + x430 + x443 + x445 + x447
       + x478 + x479 + x480 + x523  = 1
 c63:  x63 + x177 + x181 + x184 + x185 + x186 + x194 + x201 + x208 + x219
       + x274 + x275 + x316 + x325 + x354 + x404 + x456 + x470 + x479 + x481
       + x487 + x488 + x500 + x501 + x518  = 1
 c64:  x64 + x172 + x174 + x175 + 5.32907051820075e-15 x176 + x177 + x180
       + x183 + x188 + x193 + x194 + x201 + x206 + x207 + x208 + x218 + x227
       + x233 + x247 + x269 + x279 + x298 + x319 + 4.44089209850063e-16 x427
       + x433 + x448 + x461 + x466 + x520 + x545  = 1
 c65:  x65 + x135 + x171 + x172 + x173 + x174 + x175 + x179 + x203 + x204
       + x209 + x222 + x257 + x261 + x292 + x314 + x327 + x444 + x450 + x476
       + 1.00000000000732 x520  = 1
 c66:  x66 + x160 + x162 + x163 + x166 + x171 + x172 + x178 + x197 + x201
       + x230 + x277 + x285 + x300 + x357 + x371 + x392 + x402 + x432 + x487
       + x508  = 1
 c67:  x67 + x160 + x161 + x162 + x163 + x166 + x169 + x179 + x199 + x212
       + x224 + x227 + x228 + x317 + x318 + x333 + x379 + x380 + x455 + x464
       + x536 + x541 + x546  = 1
 c68:  x68 + x146 + x155 + x156 + x158 + x169 + x176 + x183 + x189 + x195
       + x197 + x199 + x203 + x231 + x244 + x266 + x312 + x342 + x344 + x379
       + x411 + x434 + x504  = 1
 c69:  x69 + x146 + x152 + x156 + x158 + x160 + x164 + x165 + x179 + x191
       + x205 + x224 + x229 + x231 + x262 + x276 + x285 + x308 + x323 + x328
       + x331 + x347 + x356 - 3.2735536499595e-12 x377 + x391 + x394 + x410
       + x432 + x502 + x505 + x511 + 1.00000000000032 x525
       + 1.06581410364015e-14 x529 + x540  = 1
 c70:  x70 + x151 + x152 + x153 + x154 + x155 + x164 + x169 + x170 + x171
       + x180 + x190 + x191 + x192 + x200 + x217 + x224 + x265 + x273 + x277
       + x280 + x335 + x339 + x362 + x370 + x381 + x401 + x425 + x430 + x437
       + x450 + x459 + x514 + x518 + x535  = 1
 c71:  x71 + x139 + x143 + x145 + x148 + x149 + x151 + x152 + x158 + x159
       + x162 + x167 + x169 + x182 + x190 + x192 + x199 + x202 + x205 + x227
       + x237 + x238 + x245 + x255 + x262 + x284 + x285 + x313 + x321 + x322
       + x327 + x342 + x422 + x446 + x447 + x456 + x484 + x503 + x547  = 1
 c72:  x72 + 1.67446057020015e-11 x138 + x139 + x143 + x144 + x145 + x147
       + x148 + x154 + x155 + x166 + x168 + x176 + x182 + x184 + x191 + x204
       + x232 + x240 + x248 + x251 + x254 + x273 + x312 + x322 + x331 + x333
       + x377 + x404 + x473 + x534  = 1
 c73:  x73 + x138 + x139 + x140 + x141 + x142 + x143 + x144 + x150 + x161
       + x167 + x170 + x176 + x178 + x183 + x200 + x202 + x203 + x205 + x207
       + x236 + x255 + x274 + 0.999999999991807 x276 + x300 + x304 + x311
       + x356 + 0.999999999979473 x373 + x421 + x436 + x461 + x488 + x528
       + x543 + x550  = 1
 c74:  x74 + x133 + x134 + x138 + x139 + x150 + x151 + x157 + x165 + x170
       + x173 + x179 + x188 + x192 + x202 + x225 + x228 + x237 + x247 + x250
       + x269 + x275 + x315 + x334 + x338 + x347 + x350
       + 0.999999999979473 x373 + x392 + x394 + x455 + x467 + x473 + x500
       + x501 + x510  = 1
 c75:  x75 + x130 + x133 + x134 + x136 + x137 + x138 + x143 + x147 + x149
       + x153 + x156 + x157 + x159 + x175 + x176 + x185 + x189 + x190 + x208
       + x215 + x223 + x227 + x242 + x251 + x258 + x273 + x307 + x313 + x314
       + x320 + x328 + x345 + x350 + x380 + x415 + x459 + x471 + x473 + x482
       + x483 + x488 + x496 + x531  = 1
 c76:  x76 + x130 + x131 + x132 + x133 + x134 + x135 + x140 + x142 + x146
       + x153 + x168 + x192 + x200 + x205 + x218 + x232 + x239 + x257 + x264
       + x307 + x318 + x336 + x338 + x414 + x451 + x467 + x517 + x523
       + 3.33066907387547e-16 x529 + x534 + x550  = 1
 c77:  x77 + x125 + x126 + x127 + x128 + x129 + x130 + x131 + x132 + x137
       + x140 + x145 + x148 + x150 + x154 + x157 + x158 + x161 + x163 + x168
       + x174 + x189 + x191 + x193 + x200 + x202 + x238 + x243 + x258 + x274
       + x279 + x284 + x299 + x334 + x360 + x390 + x422 + x451 + x456  = 1
 c78:  x78 + x122 + x123 + x125 + x127 + x128 + x129 + x130 + x131 + x133
       + x135 + 0.999999999979068 x138 + x141 + x145 + x157 + x159 + x164
       + x168 + x173 + x175 + x180 + x190 + x197 + x218 + x221 + x235 + x245
       + x260 + x265 + x276 + x285 + x286 + x305 + x354 + x362
       - 6.46234853557053e-27 x373 + 1.00000000002606 x377 + x413 + x415 + x423
       + x431 + x446 + x465 + x474 + x508  = 1
 c79:  x79 + x113 + x114 + x117 + x118 + x119 + x120 + x121 + x122 + x123
       + x124 + x125 + x127 + x128 + x132 + x136 + x137 + x140 + x141 + x144
       + x146 + x163 + x164 + x165 + x166 + x182 + x185 + x189 + x206 + x226
       + x232 + x235 + x241 + x262 + x270 + x289 + x290 + x341 + x343 + x371
       + x386 + x388 + 1.10811360087855e-12 x396 + x411 + x421 + x462 + x479
       + x503 + x505 + x517 + x521 + 2.28177881485859e-13 x525 + x539 + x541
        = 1
 c80:  x80 + x111 + x112 + x113 + x114 + x115 + x116 + x117 + x120 + x121
       + x122 + x123 + x124 + x125 + x126 + x129 + x134 + x141 + x142 + x147
       + x150 + x154 + x159 + x163 + x167 + x170 + x173 + x180 + x182 + x189
       + x193 + x220 + x228 + x229 + x232 + x237 + x248 + x249 + x255 + x259
       + x274 + x290 + x303 + x319 + x342 + x345 + x357 + x366 + x400 + x403
       + x407 + x425 + x431 + x462 + x475 + x476 + x484 + x497 + x518 + x536
       + x539 + x547  = 1
 c81:  x81 + x109 + x110 + x120 + x122 + x124 + x125 + x126 + x127 + x132
       + x135 + x136 + x148 + x149 + x150 + x153 + x156 + x165 + x167 + x168
       + x182 + x203 + x207 + x216 + x231 + x248 + x250 + x263 + x275 + x277
       + x289 + x346 + x366 + x402 + x511 + x515 + x520 + x521 + x523 + x528
       + x531 + x533 + x535 + x539  = 1
 c82:  x82 + x101 + x102 + x103 + x104 + x105 + x106 + x107 + x108 + x109
       + x110 + x112 + x115 + x116 + x118 + x119 + x121 + x122 + x124 + x126
       + x128 + x129 + x131 + x136 + x137 + x141 + x142 + x147 + x149 + x151
       + x156 + x165 + x168 + x171 + x178 + x199 + x238 + x241 + x256 + x259
       + x271 + x285 + x298 + x305 + x315 + x320 + x344 + x349 + x351 + x366
       + x445 + x453 + x480 + x500  = 1
 c83:  x83 + x101 + x102 + x103 + x104 + x105 + x106 + x107 + x108 + x109
       + x110 + x111 + x115 + x116 + x117 + x118 + x120 + x123 + x128 + x129
       + x131 + x134 + x135 + x136 + x144 + x152 + x155 + x159 + x161 + x174
       + x178 + x192 + x216 + x221 + x229 + x238 + x247 + x248 + x251 + x254
       + x257 + x265 + x274 + x301 + x330 + x337 + x395 + x403  = 1
 c84:  x84 + x101 + x102 + x103 + x104 + x105 + x106 + x107 + x108 + x109
       + x110 + x111 + x112 + x114 + x115 + x117 + x119 + x121 + x123 + x124
       + x126 + x127 + x128 + x129 + x136 + x142 + x144 + x146 + x149 + x157
       + x160 + x162 + x174 + x180 + x182 + x200 + x208 + x215 + x228 + x231
       + x234 + x252 + x256 + x269 + x287 + x291 + x311 + x317 + x334 + x339
       + x345 + x391 + x410 + x423 + x428 + x437 + x462 + x475 + x491 + x497
       + x510  = 1
 c85:  x85 + x101 + x102 + x103 + x104 + x105 + x106 + x107 + x108 + x109
       + x110 + x111 + x112 + x113 + x117 + x118 + x119 + x121 + x125 + x126
       + x127 + x131 + x137 + x140 + x144 + x147 + x151 + x152 + x153 + x155
       + x157 + x166 + x167 + x173 + x183 + x190 + x193 + x202 + x206 + x208
       + x212 + x219 + x261 + x268 + x302 + x306 + x352 + x361 + x370
       - 4.55846355569877e-27 x373 + x378 + x383 + x401 + x403 + x423 + x487
       + x498 + x499 + x505 + x509 + x510 + x528 + x530  = 1
 c86:  x86 + x101 + x102 + x103 + x104 + x105 + x106 + x107 + x108 + x109
       + x110 + x111 + x112 + x113 + x114 + x116 + x119 + x121 + x122 + x123
       + x125 + x130 + x132 + x136 + x137 + x139 + x142 + x145 + x154 + x161
       + x164 + x167 + x170 + x177 + x181 + x188 + x190 + x195 + x201 + x204
       + x229 + x239 + x243 + x274 + x278 + x301 + x331 + x332
       + 2.73726596944356e-11 x373 + x379 + x446 + x448 + x449 + x482 + x486
       + x497 + x511 + x516 + x542 + x546  = 1
 c87:  x87 + x101 + x102 + x103 + x104 + x105 + x106 + x107 + x108 + x109
       + x110 + x111 + x112 + x113 + x114 + x115 + x118 + x119 + x120 + x126
       + x128 + x132 + x133 + x137 + x141 + x144 + x149 + x152 + x153 + x154
       + x158 + x161 + x162 + x172 + x173 + x176 + x184 + x189 + x199 + x200
       + x201 + x203 + x206 + x215 + x226 + x237 + x239 + x248 + x265 + x279
       + x280 + x298 + x307 + x308 + x321 + x343 + x368 + x370 + x379 + x381
       + x387 + 0.999999999997784 x396 + x399 + x436 + x466 + x486 + x515
       + x521 + x538 + x548  = 1
 c88:  x88 + x101 + x102 + x103 + x104 + x105 + x106 + x107 + x108 + x109
       + x110 + x111 + x112 + x113 + x114 + x115 + x116 + x118 + x120 + x121
       + x123 + x124 + x129 + x130 + x134 + x138 + x140 + x141 + x146 + x148
       + x149 + x161 + x167 + x175 + x183 + x184 + x188 + x191 + x194 + x197
       + x199 + x202 + x203 + x204 + x207 + x209 + x229 + x240 + x246 + x259
       + x263 + x267 + x313 + x319 + x348 + x350 + x381 + x397 + x436 + x452
       + x457 + x467 + x515 + x525 + x531 + x541 + x546 + x549  = 1
 c89:  x89 + x101 + x102 + x103 + x104 + x105 + x106 + x107 + x108 + x109
       + x110 + x111 + x112 + x113 + x114 + x115 + x116 + x117 + x121 + x122
       + x127 + x128 + x131 + x132 + x134 + 0.999999999983255 x138 + x142
       + x145 + x147 + x150 + x156 + x162 + x164 + x174 + x183 + x184 + x186
       + x188 + x198 + x205 + x206 + x217 + x242 + x253 + x271 + x273 + x276
       + x279 + x281 + x282 + x289 + x293 + x296 + x371 + x384 + x387 + x389
       + x412 + x429 + x433 + x458 + x482 + x499 + x525 + x541 + x544  = 1
 c90:  x90 + x101 + x102 + x103 + x104 + x105 + x106 + x107 + x108 + x109
       + x110 + x111 + x112 + x113 + x114 + x115 + x116 + x117 + x118 + x122
       + x123 + x124 + x126 + x130 + x133 + x137 + x140 + x142 + x145 + x148
       + x150 + x151 + x159 + x160 + x161 + x166 + x172 + x180 + x181 + x191
       + x195 + x202 + x205 + x206 + x208 + x209 + x220 + x225 + x242 + x246
       + x255 + x257 + x267 + x277 + x279 + x305 + x310 + x322 + x328 + x337
       + x340 + x359 + x370 + x372 + x385 + x431 + x445 + x462 + x463 + x464
       + x469  = 1
 c91:  x91 + x101 + x102 + x103 + x104 + x105 + x106 + x107 + x108 + x109
       + x110 + x111 + x112 + x113 + x114 + x115 + x116 + x117 + x118 + x119
       + x123 + x124 + x125 + x127 + x129 + x132 + x135 + x138 + x142 + x143
       + x144 + x147 + x148 + x151 + x154 + x159 + x164 + x165 + x169 + x172
       + x185 + x186 + x193 + x223 + x225 + x229 + x234 + x246 + x262 + x265
       + x269 + x270 + x291 + x305 + x308 + x318 + x335 + x342 + x344 + x365
       + x398 + x407 + x409 + x452 + x459 + x464 + x470 + x504 + x505
       + 2.23165647919812e-13 x525 + x547  = 1
 c92:  x92 + x101 + x102 + x103 + x104 + x105 + x106 + x107 + x108 + x109
       + x113 + x114 + x115 + x116 + x117 + x118 + x119 + x120 + x121 + x126
       + x131 + x132 + x133 + x136 + x140 + x143 + x147 + x148 + x150 + x154
       + x157 + x159 + x162 + x164 + x165 + x167 + x171 + x179 + x183 + x187
       + x192 + x204 + x220 + x223 + x226 + x261 + x271 + x272 + x286
       + 3.5527136788005e-15 x296 + x303 + x312 + x323 + x340 + x355 + x369
       + x372 + x381 + x417 + x481 + x482 + x483 + x519 + x527  = 1
 c93:  x93 + x101 + x102 + x103 + x104 + x105 + x106 + x107 + x108 + x110
       + x112 + x113 + x114 + x115 + x116 + x117 + x118 + x119 + x120 + x126
       + x130 + x132 + x136 + x138 + x139 + x147 + x148 + x153 + x155 + x158
       + x160 + x163 + x171 + x173 + x176 + x180 + x185 + x194 + x204 + x205
       + x212 + x220 + x234 + x237 + x238 + x246 + x247 + x249 + x258 + x260
       + x272 + x284 + x287 + x300 + x338 + x357 + x370
       + 2.73726596944356e-11 x373 + x376 + x384 + x403 + x406 + x410 + x426
       + x443 + x448 + x453 + x490 + x493 + x502 + x506 + x507
       + 1.00000000001502 x520 + x538  = 1
 c94:  x94 + x101 + x102 + x103 + x104 + x105 + x106 + x107 + x111 + x112
       + x113 + x114 + x115 + x116 + x117 + x118 + x119 + x120 + x122 + x123
       + x127 + x133 + x134 + x141 + x143 + x148 + x151 + x155 + x158 + x160
       + x170 + x172 + 3.17606666275536e-12 x181 + x182 + x183 + x187 + x190
       + x200 + x206 + x214 + x218 + x220 + x225 + x227 + x234 + x247 + x251
       + x252 + x276 + x294 + x306 + x324 + x342 + x344 + x369
       + 0.999999999986971 x377 + x420 + x478 + x495  = 1
 c95:  x95 + x101 + x102 + x103 + x104 + x105 + x106 + x111 + x112 + x113
       + x114 + x115 + x116 + x117 + x118 + x119 + x120 + x121 + x123 + x124
       + x125 + x126 + x128 + x135 + 0.999999999987442 x138 + x140 + x143
       + x145 + x149 + x153 + x155 + x159 + x165 + x170 + x173 + x174 + x177
       + x187 + x191 + x196 + x199 + x211 + x218 + x222 + x236 + x260 + x262
       + x290 + x302 + x316 + x335 + x338 + x347 + x352 + x368 + x375 + x384
       + x393 + x419 + x439 + x475 + 0.999999999999888 x481 + x485 + x494
       + x524 + x544  = 1
 c96:  x96 + x101 + x102 + x103 + x104 + x105 + x111 + x112 + x113 + x114
       + x115 + x116 + x117 + x118 + x119 + x120 + x121 + x122 + x127 + x129
       + x130 + x132 + x135 + x137 + x140 + x141 + x145 + x147 + x149 + x152
       + x157 + x165 + x167 + x169 + x171 + x176 + x177 + x184 + x188 + x191
       + x194 + x195 + x196 + x216 + x232 + x234 + x238 + x242 + x245 + x253
       + x283 + x309 + x361 + x369 + 1.00000000000028 x396 + x412 + x430 + x462
       + x466 + x470 + x477 + x481 + x528  = 1
 c97:  x97 + x101 + x102 + x103 + x104 + x111 + x112 + x113 + x114 + x115
       + x116 + x117 + x118 + x119 + x120 + x121 + x122 + x123 + x126 + x129
       + x131 + x132 + x135 + x137 + x138 + x143 + x146 + x152 + x162 + x163
       + x170 + x175 + x176 + x181 + x194 + x196 + x207 + x225 + x230 + x238
       + x240 + x247 + x249 + x261 + x262 + x269 + x271 + x274 + x276 + x277
       + x290 + x304 + x309 + x313 + x336 + x355 + x362 + x388 + x419 + x422
       + x428 + x429 + x435 + x436 + x497 + x506 + x509 + x511 + x512 + x517
       + x519 + x522  = 1
 c98:  x98 + x101 + x102 + x103 + x111 + x112 + x113 + x114 + x115 + x116
       + x117 + x118 + x119 + x120 + x121 + x122 + x123 + x124 + x127 + x130
       + x131 + x135 + x137 + 2.09307016163507e-11 x138 + x139 + x149 + x150
       + x154 + x158 + x160 + x166 + x175 + x177 + x187 + x194 + x196 + x198
       + x203 + x211 + x223 + x229 + x237 + x238 + x245 + x247 + x251 + x256
       + x257 + x262 + x263 + x266 + x268 + x281 + x282 + x307 + x328 + x334
       + x341 + x357 + x359 + x362 + x374 + x391 + x398 + x413 + x471 + x472
       + x475 + x487 + x489 + x490 + x498 + x502 + x536 + x541  = 1
 c99:  x99 + x101 + x102 + x111 + x112 + x114 + x116 + x117 + x118 + x119
       + x120 + x121 + x122 + x124 + x125 + x128 + x129 + x130 + x133
       + 2.09281481033941e-11 x138 + x139 + x140 + x143 + x147 + x152 + x155
       + x156 + x169 + x172 + x180 + x184 + x187 + x189 + x198 + x202 + x207
       + x212 + x218 + x221 + x228 + x241 + x242 + x249 + x252 + x281 + x282
       + x288 + x298 + x306 + x313 + x314 + x329 + x347 + x357 + x360 + x365
       + x405 + x443 + x471 + x485 + x506 + x514 + x519 + x528 + x529  = 1
 c100: x100 + x101 + x111 + x113 + x115 + x116 + x117 + x119 + x120 + x121
       + x122 + x123 + x124 + x125 + x129 + x131 + x132 + x133 + x136 + x137
       + 7.11839476252862e-11 x138 + x140 + x144 + x145 + x148 + x149 + x151
       + x156 + x158 + x162 + x163 + x171 + x175 + x177 + x183 + x186 + x195
       + x198 + x209 + x216 + x221 + x224 + x246 + x266 + x271 + x272 + x290
       + x292 + x306 + x320 + x322 + x329 + x334 + x335 + x341 + x353 + x368
       + x378 + x389 + x408 + x419 + 4.44089209850063e-16 x427 + x428 + x443
       + x446 + x455 + x463 + x471 + x476 + x479 + x484 + x485 + x486 + x488
       + x489 + x514 + x534 + x543  = 1
End
